NAME          DCAP_2_4_3_300_SS45
ROWS
 N  OBJ
 L  CON1
 L  CON2
 L  CON3
 L  CON4
 L  CON5
 L  CON6
 L  CON7
 L  CON8
 L  CON9
 L  CON10
 L  CON11
 L  CON12
 E  CON13
 E  CON14
 E  CON15
 E  CON16
 E  CON17
 E  CON18
 E  CON19
 E  CON20
 E  CON21
 E  CON22
 E  CON23
 E  CON24
COLUMNS
    x[1,1]    OBJ       6.180167      CON1      1.000000    
    x[1,1]    CON7      -1.000000     CON8      -1.000000   
    x[1,1]    CON9      -1.000000   
    x[1,2]    OBJ       6.563535      CON2      1.000000    
    x[1,2]    CON8      -1.000000     CON9      -1.000000   
    x[1,3]    OBJ       7.443064      CON3      1.000000    
    x[1,3]    CON9      -1.000000   
    x[2,1]    OBJ       6.732585      CON4      1.000000    
    x[2,1]    CON10     -1.000000     CON11     -1.000000   
    x[2,1]    CON12     -1.000000   
    x[2,2]    OBJ       5.039546      CON5      1.000000    
    x[2,2]    CON11     -1.000000     CON12     -1.000000   
    x[2,3]    OBJ       6.054841      CON6      1.000000    
    x[2,3]    CON12     -1.000000   
    MARKER    'MARKER'                'INTORG'
    u[1,1]    OBJ       48.076654     CON1      -1.000000   
    u[1,2]    OBJ       20.066487     CON2      -1.000000   
    u[1,3]    OBJ       32.230043     CON3      -1.000000   
    u[2,1]    OBJ       49.996186     CON4      -1.000000   
    u[2,2]    OBJ       49.466655     CON5      -1.000000   
    u[2,3]    OBJ       27.484319     CON6      -1.000000   
    y[1,1,1]  OBJ       6.733257      CON7      0.736082    
    y[1,1,1]  CON13     1.000000    
    y[1,1,2]  OBJ       9.287847      CON8      1.457115    
    y[1,1,2]  CON14     1.000000    
    y[1,1,3]  OBJ       5.293438      CON9      1.187763    
    y[1,1,3]  CON15     1.000000    
    y[1,2,1]  OBJ       7.511560      CON7      0.814364    
    y[1,2,1]  CON16     1.000000    
    y[1,2,2]  OBJ       6.636344      CON8      0.999500    
    y[1,2,2]  CON17     1.000000    
    y[1,2,3]  OBJ       5.219256      CON9      1.453138    
    y[1,2,3]  CON18     1.000000    
    y[1,3,1]  OBJ       7.101537      CON7      0.760126    
    y[1,3,1]  CON19     1.000000    
    y[1,3,2]  OBJ       7.206004      CON8      1.466146    
    y[1,3,2]  CON20     1.000000    
    y[1,3,3]  OBJ       8.762153      CON9      1.465927    
    y[1,3,3]  CON21     1.000000    
    y[1,4,1]  OBJ       5.320753      CON7      1.452979    
    y[1,4,1]  CON22     1.000000    
    y[1,4,2]  OBJ       7.150641      CON8      1.402118    
    y[1,4,2]  CON23     1.000000    
    y[1,4,3]  OBJ       8.247966      CON9      0.596967    
    y[1,4,3]  CON24     1.000000    
    y[2,1,1]  OBJ       9.862028      CON10     0.736082    
    y[2,1,1]  CON13     1.000000    
    y[2,1,2]  OBJ       7.809478      CON11     1.457115    
    y[2,1,2]  CON14     1.000000    
    y[2,1,3]  OBJ       6.271448      CON12     1.187763    
    y[2,1,3]  CON15     1.000000    
    y[2,2,1]  OBJ       9.104575      CON10     0.814364    
    y[2,2,1]  CON16     1.000000    
    y[2,2,2]  OBJ       8.298044      CON11     0.999500    
    y[2,2,2]  CON17     1.000000    
    y[2,2,3]  OBJ       8.472414      CON12     1.453138    
    y[2,2,3]  CON18     1.000000    
    y[2,3,1]  OBJ       7.223852      CON10     0.760126    
    y[2,3,1]  CON19     1.000000    
    y[2,3,2]  OBJ       7.390949      CON11     1.466146    
    y[2,3,2]  CON20     1.000000    
    y[2,3,3]  OBJ       5.928548      CON12     1.465927    
    y[2,3,3]  CON21     1.000000    
    y[2,4,1]  OBJ       9.807366      CON10     1.452979    
    y[2,4,1]  CON22     1.000000    
    y[2,4,2]  OBJ       8.176077      CON11     1.402118    
    y[2,4,2]  CON23     1.000000    
    y[2,4,3]  OBJ       6.079405      CON12     0.596967    
    y[2,4,3]  CON24     1.000000    
    z[1,1]    OBJ       545.686678    CON13     1.000000    
    z[1,2]    OBJ       933.260514    CON14     1.000000    
    z[1,3]    OBJ       987.197080    CON15     1.000000    
    z[2,1]    OBJ       574.647388    CON16     1.000000    
    z[2,2]    OBJ       570.787001    CON17     1.000000    
    z[2,3]    OBJ       514.366757    CON18     1.000000    
    z[3,1]    OBJ       877.388620    CON19     1.000000    
    z[3,2]    OBJ       501.324192    CON20     1.000000    
    z[3,3]    OBJ       771.394165    CON21     1.000000    
    z[4,1]    OBJ       746.949203    CON22     1.000000    
    z[4,2]    OBJ       889.366527    CON23     1.000000    
    z[4,3]    OBJ       881.141277    CON24     1.000000    
    MARKER    'MARKER'                 'INTEND'
RHS
    RHS       CON1      -0.000000     CON2      -0.000000   
    RHS       CON3      -0.000000     CON4      -0.000000   
    RHS       CON5      -0.000000     CON6      -0.000000   
    RHS       CON7      -0.000000     CON8      -0.000000   
    RHS       CON9      -0.000000     CON10     -0.000000   
    RHS       CON11     -0.000000     CON12     -0.000000   
    RHS       CON13     1.000000      CON14     1.000000    
    RHS       CON15     1.000000      CON16     1.000000    
    RHS       CON17     1.000000      CON18     1.000000    
    RHS       CON19     1.000000      CON20     1.000000    
    RHS       CON21     1.000000      CON22     1.000000    
    RHS       CON23     1.000000      CON24     1.000000    
BOUNDS
 BV BOUND     u[1,1]  
 BV BOUND     u[1,2]  
 BV BOUND     u[1,3]  
 BV BOUND     u[2,1]  
 BV BOUND     u[2,2]  
 BV BOUND     u[2,3]  
 BV BOUND     y[1,1,1]
 BV BOUND     y[1,1,2]
 BV BOUND     y[1,1,3]
 BV BOUND     y[1,2,1]
 BV BOUND     y[1,2,2]
 BV BOUND     y[1,2,3]
 BV BOUND     y[1,3,1]
 BV BOUND     y[1,3,2]
 BV BOUND     y[1,3,3]
 BV BOUND     y[1,4,1]
 BV BOUND     y[1,4,2]
 BV BOUND     y[1,4,3]
 BV BOUND     y[2,1,1]
 BV BOUND     y[2,1,2]
 BV BOUND     y[2,1,3]
 BV BOUND     y[2,2,1]
 BV BOUND     y[2,2,2]
 BV BOUND     y[2,2,3]
 BV BOUND     y[2,3,1]
 BV BOUND     y[2,3,2]
 BV BOUND     y[2,3,3]
 BV BOUND     y[2,4,1]
 BV BOUND     y[2,4,2]
 BV BOUND     y[2,4,3]
 BV BOUND     z[1,1]  
 BV BOUND     z[1,2]  
 BV BOUND     z[1,3]  
 BV BOUND     z[2,1]  
 BV BOUND     z[2,2]  
 BV BOUND     z[2,3]  
 BV BOUND     z[3,1]  
 BV BOUND     z[3,2]  
 BV BOUND     z[3,3]  
 BV BOUND     z[4,1]  
 BV BOUND     z[4,2]  
 BV BOUND     z[4,3]  
ENDATA
